solution status: gap limit reached
objective value:                          34203.05082
y#8                                                 1 	(obj:5700)
y#9                                                 1 	(obj:5700)
y#18                                                1 	(obj:5700)
y#23                                                1 	(obj:5700)
y#32                                                1 	(obj:5700)
y#39                                                1 	(obj:5700)
x#1#32                                              1 	(obj:0.0646)
x#2#9                                               1 	(obj:0.02669)
x#3#9                                               1 	(obj:0.03893)
x#4#39                                              1 	(obj:0.01037)
x#5#8                                               1 	(obj:0.04675)
x#6#18                                              1 	(obj:0.0272)
x#7#23                                              1 	(obj:0.06001)
x#8#8                                               1 	(obj:0.05729)
x#9#32                                              1 	(obj:0.04641)
x#10#8                                              1 	(obj:0.01173)
x#11#39                                             1 	(obj:0.01972)
x#12#32                                             1 	(obj:0.0561)
x#13#32                                             1 	(obj:0.03485)
x#14#8                                              1 	(obj:0.05746)
x#15#39                                             1 	(obj:0.02601)
x#16#18                                             1 	(obj:0.11628)
x#17#18                                             1 	(obj:0.07752)
x#18#32                                             1 	(obj:0.04369)
x#19#39                                             1 	(obj:0.01309)
x#20#39                                             1 	(obj:0.01632)
x#21#23                                             1 	(obj:0.04522)
x#22#9                                              1 	(obj:0.04624)
x#23#23                                             1 	(obj:0.05253)
x#24#9                                              1 	(obj:0.04658)
x#25#18                                             1 	(obj:0.03876)
x#26#32                                             1 	(obj:0.08449)
x#27#23                                             1 	(obj:0.00952)
x#28#32                                             1 	(obj:0.0714)
x#29#18                                             1 	(obj:0.03094)
x#30#23                                             1 	(obj:0.04981)
x#31#8                                              1 	(obj:0.01666)
x#32#32                                             1 	(obj:0.07293)
x#33#39                                             1 	(obj:0.02669)
x#34#8                                              1 	(obj:0.02074)
x#35#18                                             1 	(obj:0.01887)
x#36#8                                              1 	(obj:0.04454)
x#37#23                                             1 	(obj:0.02142)
x#38#32                                             1 	(obj:0.02856)
x#39#23                                             1 	(obj:0.01989)
x#40#9                                              1 	(obj:0.03417)
x#41#39                                             1 	(obj:0.00578)
x#42#18                                             1 	(obj:0.03111)
x#43#9                                              1 	(obj:0.1445)
x#44#23                                             1 	(obj:0.02023)
x#45#18                                             1 	(obj:0.06137)
x#46#18                                             1 	(obj:0.03995)
x#47#9                                              1 	(obj:0.13124)
x#48#23                                             1 	(obj:0.03876)
x#49#18                                             1 	(obj:0.05899)
x#50#8                                              1 	(obj:0.04199)
x#51#23                                             1 	(obj:0.05474)
x#52#39                                             1 	(obj:0.01904)
x#53#9                                              1 	(obj:0.03553)
x#54#32                                             1 	(obj:0.05304)
x#55#8                                              1 	(obj:0.03179)
x#56#8                                              1 	(obj:0.02618)
x#57#8                                              1 	(obj:0.02482)
x#58#39                                             1 	(obj:0.14892)
x#59#9                                              1 	(obj:0.04828)
x#60#39                                             1 	(obj:0.03349)
x#61#18                                             1 	(obj:0.0374)
x#62#32                                             1 	(obj:0.07429)
x#63#39                                             1 	(obj:0.02346)
x#64#39                                             1 	(obj:0.02414)
x#65#32                                             1 	(obj:0.04182)
x#66#9                                              1 	(obj:0.03213)
x#67#39                                             1 	(obj:0.0085)
x#68#9                                              1 	(obj:0.03536)
x#69#8                                              1 	(obj:0.05814)
x#70#9                                              1 	(obj:0.03485)
